p cnf 277 2258
                                    
-1 0
2 0
-1 3 0
-3 4 0
-4 5 0
-5 6 0
-6 7 0
-7 8 0
-8 9 0
-9 10 0
-10 11 0
-11 12 0
-12 13 0
-13 14 0
-14 15 0
-15 16 0
-16 17 0
-17 18 0
-18 19 0
-19 20 0
-20 21 0
-21 22 0
-22 23 0
-23 24 0
-24 25 0
-25 26 0
-26 27 0
-27 28 0
-28 29 0
-29 30 0
-30 31 0
-31 32 0
-32 33 0
-33 34 0
-34 35 0
-35 36 0
-36 37 0
-37 38 0
-38 39 0
-39 40 0
-40 41 0
-41 42 0
-42 43 0
-43 44 0
-44 45 0
-45 46 0
-46 47 0
-47 48 0
-48 49 0
-49 50 0
-50 51 0
-51 52 0
-52 2 0
-53 0
54 0
-53 55 0
-55 56 0
-56 57 0
-57 58 0
-58 59 0
-59 60 0
-60 61 0
-61 62 0
-62 63 0
-63 64 0
-64 65 0
-65 66 0
-66 67 0
-67 68 0
-68 69 0
-69 70 0
-70 71 0
-71 72 0
-72 73 0
-73 74 0
-74 75 0
-75 76 0
-76 77 0
-77 78 0
-78 79 0
-79 80 0
-80 81 0
-81 82 0
-82 83 0
-83 84 0
-84 85 0
-85 86 0
-86 87 0
-87 88 0
-88 89 0
-89 90 0
-90 91 0
-91 92 0
-92 93 0
-93 94 0
-94 95 0
-95 96 0
-96 97 0
-97 98 0
-98 99 0
-99 100 0
-100 101 0
-101 102 0
-102 103 0
-103 104 0
-104 105 0
-105 106 0
-106 107 0
-107 108 0
-108 109 0
-109 110 0
-110 111 0
-111 112 0
-112 113 0
-113 114 0
-114 115 0
-115 116 0
-116 117 0
-117 118 0
-118 119 0
-119 120 0
-120 121 0
-121 122 0
-122 123 0
-123 124 0
-124 125 0
-125 126 0
-126 127 0
-127 128 0
-128 129 0
-129 130 0
-130 131 0
-131 132 0
-132 133 0
-133 134 0
-134 135 0
-135 136 0
-136 137 0
-137 138 0
-138 139 0
-139 140 0
-140 141 0
-141 142 0
-142 143 0
-143 144 0
-144 145 0
-145 146 0
-146 147 0
-147 148 0
-148 149 0
-149 150 0
-150 151 0
-151 152 0
-152 153 0
-153 154 0
-154 155 0
-155 156 0
-156 54 0
-157 0
158 0
-157 159 0
-159 160 0
-160 161 0
-161 162 0
-162 163 0
-163 164 0
-164 165 0
-165 166 0
-166 167 0
-167 168 0
-168 169 0
-169 170 0
-170 171 0
-171 172 0
-172 173 0
-173 174 0
-174 175 0
-175 176 0
-176 177 0
-177 178 0
-178 179 0
-179 180 0
-180 181 0
-181 182 0
-182 183 0
-183 184 0
-184 185 0
-185 186 0
-186 187 0
-187 188 0
-188 189 0
-189 190 0
-190 191 0
-191 192 0
-192 193 0
-193 194 0
-194 195 0
-195 196 0
-196 197 0
-197 198 0
-198 199 0
-199 200 0
-200 201 0
-201 202 0
-202 203 0
-203 204 0
-204 205 0
-205 206 0
-206 207 0
-207 208 0
-208 209 0
-209 210 0
-210 211 0
-211 212 0
-212 213 0
-213 214 0
-214 215 0
-215 216 0
-216 217 0
-217 218 0
-218 219 0
-219 220 0
-220 221 0
-221 222 0
-222 223 0
-223 224 0
-224 225 0
-225 226 0
-226 227 0
-227 228 0
-228 229 0
-229 230 0
-230 231 0
-231 232 0
-232 233 0
-233 234 0
-234 235 0
-235 236 0
-236 237 0
-237 158 0
-238 0
239 0
-238 240 0
-240 241 0
-241 242 0
-242 243 0
-243 244 0
-244 245 0
-245 246 0
-246 247 0
-247 248 0
-248 249 0
-249 250 0
-250 251 0
-251 252 0
-252 253 0
-253 254 0
-254 255 0
-255 256 0
-256 257 0
-257 258 0
-258 259 0
-259 260 0
-260 261 0
-261 262 0
-262 263 0
-263 264 0
-264 265 0
-265 266 0
-266 267 0
-267 268 0
-268 269 0
-269 270 0
-270 271 0
-271 239 0
1 -56 0
3 -57 0
4 -58 0
5 -59 0
6 -60 0
7 -61 0
8 -62 0
9 -63 0
10 -64 0
11 -65 0
12 -66 0
13 -67 0
14 -68 0
15 -69 0
16 -70 0
17 -71 0
18 -72 0
19 -73 0
20 -74 0
21 -75 0
22 -76 0
23 -77 0
24 -78 0
25 -79 0
26 -80 0
27 -81 0
28 -82 0
29 -83 0
30 -84 0
31 -85 0
32 -86 0
33 -87 0
34 -88 0
35 -89 0
36 -90 0
37 -91 0
38 -92 0
39 -93 0
40 -94 0
41 -95 0
42 -96 0
43 -97 0
44 -98 0
45 -99 0
46 -100 0
47 -101 0
48 -102 0
49 -103 0
50 -104 0
51 -105 0
52 -106 0
2 -107 0
1 -157 0
3 -159 0
4 -160 0
5 -161 0
6 -162 0
7 -163 0
8 -164 0
9 -165 0
10 -166 0
11 -167 0
12 -168 0
13 -169 0
14 -170 0
15 -171 0
16 -172 0
17 -173 0
18 -174 0
19 -175 0
20 -176 0
21 -177 0
22 -178 0
23 -179 0
24 -180 0
25 -181 0
26 -182 0
27 -183 0
28 -184 0
29 -185 0
30 -186 0
31 -187 0
32 -188 0
33 -189 0
34 -190 0
35 -191 0
36 -192 0
37 -193 0
38 -194 0
39 -195 0
40 -196 0
41 -197 0
42 -198 0
43 -199 0
44 -200 0
45 -201 0
46 -202 0
47 -203 0
48 -204 0
49 -205 0
50 -206 0
51 -207 0
52 -208 0
2 -209 0
272 273 0
1 -242 -272 0
3 -243 -272 0
4 -244 -272 0
5 -245 -272 0
6 -246 -272 0
7 -247 -272 0
8 -248 -272 0
9 -249 -272 0
10 -250 -272 0
11 -251 -272 0
12 -252 -272 0
13 -253 -272 0
14 -254 -272 0
15 -255 -272 0
16 -256 -272 0
17 -257 -272 0
18 -258 -272 0
19 -259 -272 0
20 -260 -272 0
21 -261 -272 0
22 -262 -272 0
23 -263 -272 0
24 -264 -272 0
25 -265 -272 0
26 -266 -272 0
27 -267 -272 0
28 -268 -272 0
29 -269 -272 0
30 -270 -272 0
31 -271 -272 0
32 -239 -272 0
240 -1 -273 0
241 -3 -273 0
242 -4 -273 0
243 -5 -273 0
244 -6 -273 0
245 -7 -273 0
246 -8 -273 0
247 -9 -273 0
248 -10 -273 0
249 -11 -273 0
250 -12 -273 0
251 -13 -273 0
252 -14 -273 0
253 -15 -273 0
254 -16 -273 0
255 -17 -273 0
256 -18 -273 0
257 -19 -273 0
258 -20 -273 0
259 -21 -273 0
260 -22 -273 0
261 -23 -273 0
262 -24 -273 0
263 -25 -273 0
264 -26 -273 0
265 -27 -273 0
266 -28 -273 0
267 -29 -273 0
268 -30 -273 0
269 -31 -273 0
270 -32 -273 0
271 -33 -273 0
239 -34 -273 0
57 -157 0
58 -159 0
59 -160 0
60 -161 0
61 -162 0
62 -163 0
63 -164 0
64 -165 0
65 -166 0
66 -167 0
67 -168 0
68 -169 0
69 -170 0
70 -171 0
71 -172 0
72 -173 0
73 -174 0
74 -175 0
75 -176 0
76 -177 0
77 -178 0
78 -179 0
79 -180 0
80 -181 0
81 -182 0
82 -183 0
83 -184 0
84 -185 0
85 -186 0
86 -187 0
87 -188 0
88 -189 0
89 -190 0
90 -191 0
91 -192 0
92 -193 0
93 -194 0
94 -195 0
95 -196 0
96 -197 0
97 -198 0
98 -199 0
99 -200 0
100 -201 0
101 -202 0
102 -203 0
103 -204 0
104 -205 0
105 -206 0
106 -207 0
107 -208 0
108 -209 0
109 -210 0
110 -211 0
111 -212 0
112 -213 0
113 -214 0
114 -215 0
115 -216 0
116 -217 0
117 -218 0
118 -219 0
119 -220 0
120 -221 0
121 -222 0
122 -223 0
123 -224 0
124 -225 0
125 -226 0
126 -227 0
127 -228 0
128 -229 0
129 -230 0
130 -231 0
131 -232 0
132 -233 0
133 -234 0
134 -235 0
135 -236 0
136 -237 0
137 -158 0
157 -57 0
159 -58 0
160 -59 0
161 -60 0
162 -61 0
163 -62 0
164 -63 0
165 -64 0
166 -65 0
167 -66 0
168 -67 0
169 -68 0
170 -69 0
171 -70 0
172 -71 0
173 -72 0
174 -73 0
175 -74 0
176 -75 0
177 -76 0
178 -77 0
179 -78 0
180 -79 0
181 -80 0
182 -81 0
183 -82 0
184 -83 0
185 -84 0
186 -85 0
187 -86 0
188 -87 0
189 -88 0
190 -89 0
191 -90 0
192 -91 0
193 -92 0
194 -93 0
195 -94 0
196 -95 0
197 -96 0
198 -97 0
199 -98 0
200 -99 0
201 -100 0
202 -101 0
203 -102 0
204 -103 0
205 -104 0
206 -105 0
207 -106 0
208 -107 0
209 -108 0
210 -109 0
211 -110 0
212 -111 0
213 -112 0
214 -113 0
215 -114 0
216 -115 0
217 -116 0
218 -117 0
219 -118 0
220 -119 0
221 -120 0
222 -121 0
223 -122 0
224 -123 0
225 -124 0
226 -125 0
227 -126 0
228 -127 0
229 -128 0
230 -129 0
231 -130 0
232 -131 0
233 -132 0
234 -133 0
235 -134 0
236 -135 0
237 -136 0
158 -137 0
57 -157 0
58 -159 0
59 -160 0
60 -161 0
61 -162 0
62 -163 0
63 -164 0
64 -165 0
65 -166 0
66 -167 0
67 -168 0
68 -169 0
69 -170 0
70 -171 0
71 -172 0
72 -173 0
73 -174 0
74 -175 0
75 -176 0
76 -177 0
77 -178 0
78 -179 0
79 -180 0
80 -181 0
81 -182 0
82 -183 0
83 -184 0
84 -185 0
85 -186 0
86 -187 0
87 -188 0
88 -189 0
89 -190 0
90 -191 0
91 -192 0
92 -193 0
93 -194 0
94 -195 0
95 -196 0
96 -197 0
97 -198 0
98 -199 0
99 -200 0
100 -201 0
101 -202 0
102 -203 0
103 -204 0
104 -205 0
105 -206 0
106 -207 0
107 -208 0
108 -209 0
109 -210 0
110 -211 0
111 -212 0
112 -213 0
113 -214 0
114 -215 0
115 -216 0
116 -217 0
117 -218 0
118 -219 0
119 -220 0
120 -221 0
121 -222 0
122 -223 0
123 -224 0
124 -225 0
125 -226 0
126 -227 0
127 -228 0
128 -229 0
129 -230 0
130 -231 0
131 -232 0
132 -233 0
133 -234 0
134 -235 0
135 -236 0
136 -237 0
137 -158 0
53 -238 0
55 -240 0
56 -241 0
57 -242 0
58 -243 0
59 -244 0
60 -245 0
61 -246 0
62 -247 0
63 -248 0
64 -249 0
65 -250 0
66 -251 0
67 -252 0
68 -253 0
69 -254 0
70 -255 0
71 -256 0
72 -257 0
73 -258 0
74 -259 0
75 -260 0
76 -261 0
77 -262 0
78 -263 0
79 -264 0
80 -265 0
81 -266 0
82 -267 0
83 -268 0
84 -269 0
85 -270 0
86 -271 0
87 -239 0
157 -57 -274 0
159 -58 -274 0
160 -59 -274 0
161 -60 -274 0
162 -61 -274 0
163 -62 -274 0
164 -63 -274 0
165 -64 -274 0
166 -65 -274 0
167 -66 -274 0
168 -67 -274 0
169 -68 -274 0
170 -69 -274 0
171 -70 -274 0
172 -71 -274 0
173 -72 -274 0
174 -73 -274 0
175 -74 -274 0
176 -75 -274 0
177 -76 -274 0
178 -77 -274 0
179 -78 -274 0
180 -79 -274 0
181 -80 -274 0
182 -81 -274 0
183 -82 -274 0
184 -83 -274 0
185 -84 -274 0
186 -85 -274 0
187 -86 -274 0
188 -87 -274 0
189 -88 -274 0
190 -89 -274 0
191 -90 -274 0
192 -91 -274 0
193 -92 -274 0
194 -93 -274 0
195 -94 -274 0
196 -95 -274 0
197 -96 -274 0
198 -97 -274 0
199 -98 -274 0
200 -99 -274 0
201 -100 -274 0
202 -101 -274 0
203 -102 -274 0
204 -103 -274 0
205 -104 -274 0
206 -105 -274 0
207 -106 -274 0
208 -107 -274 0
209 -108 -274 0
210 -109 -274 0
211 -110 -274 0
212 -111 -274 0
213 -112 -274 0
214 -113 -274 0
215 -114 -274 0
216 -115 -274 0
217 -116 -274 0
218 -117 -274 0
219 -118 -274 0
220 -119 -274 0
221 -120 -274 0
222 -121 -274 0
223 -122 -274 0
224 -123 -274 0
225 -124 -274 0
226 -125 -274 0
227 -126 -274 0
228 -127 -274 0
229 -128 -274 0
230 -129 -274 0
231 -130 -274 0
232 -131 -274 0
233 -132 -274 0
234 -133 -274 0
235 -134 -274 0
236 -135 -274 0
237 -136 -274 0
158 -137 -274 0
238 -53 -275 0
240 -55 -275 0
241 -56 -275 0
242 -57 -275 0
243 -58 -275 0
244 -59 -275 0
245 -60 -275 0
246 -61 -275 0
247 -62 -275 0
248 -63 -275 0
249 -64 -275 0
250 -65 -275 0
251 -66 -275 0
252 -67 -275 0
253 -68 -275 0
254 -69 -275 0
255 -70 -275 0
256 -71 -275 0
257 -72 -275 0
258 -73 -275 0
259 -74 -275 0
260 -75 -275 0
261 -76 -275 0
262 -77 -275 0
263 -78 -275 0
264 -79 -275 0
265 -80 -275 0
266 -81 -275 0
267 -82 -275 0
268 -83 -275 0
269 -84 -275 0
270 -85 -275 0
271 -86 -275 0
239 -87 -275 0
274 275 0
3 -157 0
4 -159 0
5 -160 0
6 -161 0
7 -162 0
8 -163 0
9 -164 0
10 -165 0
11 -166 0
12 -167 0
13 -168 0
14 -169 0
15 -170 0
16 -171 0
17 -172 0
18 -173 0
19 -174 0
20 -175 0
21 -176 0
22 -177 0
23 -178 0
24 -179 0
25 -180 0
26 -181 0
27 -182 0
28 -183 0
29 -184 0
30 -185 0
31 -186 0
32 -187 0
33 -188 0
34 -189 0
35 -190 0
36 -191 0
37 -192 0
38 -193 0
39 -194 0
40 -195 0
41 -196 0
42 -197 0
43 -198 0
44 -199 0
45 -200 0
46 -201 0
47 -202 0
48 -203 0
49 -204 0
50 -205 0
51 -206 0
52 -207 0
2 -208 0
57 -157 0
58 -159 0
59 -160 0
60 -161 0
61 -162 0
62 -163 0
63 -164 0
64 -165 0
65 -166 0
66 -167 0
67 -168 0
68 -169 0
69 -170 0
70 -171 0
71 -172 0
72 -173 0
73 -174 0
74 -175 0
75 -176 0
76 -177 0
77 -178 0
78 -179 0
79 -180 0
80 -181 0
81 -182 0
82 -183 0
83 -184 0
84 -185 0
85 -186 0
86 -187 0
87 -188 0
88 -189 0
89 -190 0
90 -191 0
91 -192 0
92 -193 0
93 -194 0
94 -195 0
95 -196 0
96 -197 0
97 -198 0
98 -199 0
99 -200 0
100 -201 0
101 -202 0
102 -203 0
103 -204 0
104 -205 0
105 -206 0
106 -207 0
107 -208 0
108 -209 0
109 -210 0
110 -211 0
111 -212 0
112 -213 0
113 -214 0
114 -215 0
115 -216 0
116 -217 0
117 -218 0
118 -219 0
119 -220 0
120 -221 0
121 -222 0
122 -223 0
123 -224 0
124 -225 0
125 -226 0
126 -227 0
127 -228 0
128 -229 0
129 -230 0
130 -231 0
131 -232 0
132 -233 0
133 -234 0
134 -235 0
135 -236 0
136 -237 0
137 -158 0
157 -3 -276 0
159 -4 -276 0
160 -5 -276 0
161 -6 -276 0
162 -7 -276 0
163 -8 -276 0
164 -9 -276 0
165 -10 -276 0
166 -11 -276 0
167 -12 -276 0
168 -13 -276 0
169 -14 -276 0
170 -15 -276 0
171 -16 -276 0
172 -17 -276 0
173 -18 -276 0
174 -19 -276 0
175 -20 -276 0
176 -21 -276 0
177 -22 -276 0
178 -23 -276 0
179 -24 -276 0
180 -25 -276 0
181 -26 -276 0
182 -27 -276 0
183 -28 -276 0
184 -29 -276 0
185 -30 -276 0
186 -31 -276 0
187 -32 -276 0
188 -33 -276 0
189 -34 -276 0
190 -35 -276 0
191 -36 -276 0
192 -37 -276 0
193 -38 -276 0
194 -39 -276 0
195 -40 -276 0
196 -41 -276 0
197 -42 -276 0
198 -43 -276 0
199 -44 -276 0
200 -45 -276 0
201 -46 -276 0
202 -47 -276 0
203 -48 -276 0
204 -49 -276 0
205 -50 -276 0
206 -51 -276 0
207 -52 -276 0
208 -2 -276 0
157 -57 -277 0
159 -58 -277 0
160 -59 -277 0
161 -60 -277 0
162 -61 -277 0
163 -62 -277 0
164 -63 -277 0
165 -64 -277 0
166 -65 -277 0
167 -66 -277 0
168 -67 -277 0
169 -68 -277 0
170 -69 -277 0
171 -70 -277 0
172 -71 -277 0
173 -72 -277 0
174 -73 -277 0
175 -74 -277 0
176 -75 -277 0
177 -76 -277 0
178 -77 -277 0
179 -78 -277 0
180 -79 -277 0
181 -80 -277 0
182 -81 -277 0
183 -82 -277 0
184 -83 -277 0
185 -84 -277 0
186 -85 -277 0
187 -86 -277 0
188 -87 -277 0
189 -88 -277 0
190 -89 -277 0
191 -90 -277 0
192 -91 -277 0
193 -92 -277 0
194 -93 -277 0
195 -94 -277 0
196 -95 -277 0
197 -96 -277 0
198 -97 -277 0
199 -98 -277 0
200 -99 -277 0
201 -100 -277 0
202 -101 -277 0
203 -102 -277 0
204 -103 -277 0
205 -104 -277 0
206 -105 -277 0
207 -106 -277 0
208 -107 -277 0
209 -108 -277 0
210 -109 -277 0
211 -110 -277 0
212 -111 -277 0
213 -112 -277 0
214 -113 -277 0
215 -114 -277 0
216 -115 -277 0
217 -116 -277 0
218 -117 -277 0
219 -118 -277 0
220 -119 -277 0
221 -120 -277 0
222 -121 -277 0
223 -122 -277 0
224 -123 -277 0
225 -124 -277 0
226 -125 -277 0
227 -126 -277 0
228 -127 -277 0
229 -128 -277 0
230 -129 -277 0
231 -130 -277 0
232 -131 -277 0
233 -132 -277 0
234 -133 -277 0
235 -134 -277 0
236 -135 -277 0
237 -136 -277 0
158 -137 -277 0
276 277 0
-239 157 86 0
-239 159 85 0
-239 160 84 0
-239 161 83 0
-239 162 82 0
-239 163 81 0
-239 164 80 0
-239 165 79 0
-239 166 78 0
-239 167 77 0
-239 168 76 0
-239 169 75 0
-239 170 74 0
-239 171 73 0
-239 172 72 0
-239 173 71 0
-239 174 70 0
-239 175 69 0
-239 176 68 0
-239 177 67 0
-239 178 66 0
-239 179 65 0
-239 180 64 0
-239 181 63 0
-239 182 62 0
-239 183 61 0
-239 184 60 0
-239 185 59 0
-239 186 58 0
-239 187 57 0
-239 188 56 0
-239 189 55 0
-239 190 53 0
-271 157 85 0
-271 159 84 0
-271 160 83 0
-271 161 82 0
-271 162 81 0
-271 163 80 0
-271 164 79 0
-271 165 78 0
-271 166 77 0
-271 167 76 0
-271 168 75 0
-271 169 74 0
-271 170 73 0
-271 171 72 0
-271 172 71 0
-271 173 70 0
-271 174 69 0
-271 175 68 0
-271 176 67 0
-271 177 66 0
-271 178 65 0
-271 179 64 0
-271 180 63 0
-271 181 62 0
-271 182 61 0
-271 183 60 0
-271 184 59 0
-271 185 58 0
-271 186 57 0
-271 187 56 0
-271 188 55 0
-271 189 53 0
-270 157 84 0
-270 159 83 0
-270 160 82 0
-270 161 81 0
-270 162 80 0
-270 163 79 0
-270 164 78 0
-270 165 77 0
-270 166 76 0
-270 167 75 0
-270 168 74 0
-270 169 73 0
-270 170 72 0
-270 171 71 0
-270 172 70 0
-270 173 69 0
-270 174 68 0
-270 175 67 0
-270 176 66 0
-270 177 65 0
-270 178 64 0
-270 179 63 0
-270 180 62 0
-270 181 61 0
-270 182 60 0
-270 183 59 0
-270 184 58 0
-270 185 57 0
-270 186 56 0
-270 187 55 0
-270 188 53 0
-269 157 83 0
-269 159 82 0
-269 160 81 0
-269 161 80 0
-269 162 79 0
-269 163 78 0
-269 164 77 0
-269 165 76 0
-269 166 75 0
-269 167 74 0
-269 168 73 0
-269 169 72 0
-269 170 71 0
-269 171 70 0
-269 172 69 0
-269 173 68 0
-269 174 67 0
-269 175 66 0
-269 176 65 0
-269 177 64 0
-269 178 63 0
-269 179 62 0
-269 180 61 0
-269 181 60 0
-269 182 59 0
-269 183 58 0
-269 184 57 0
-269 185 56 0
-269 186 55 0
-269 187 53 0
-268 157 82 0
-268 159 81 0
-268 160 80 0
-268 161 79 0
-268 162 78 0
-268 163 77 0
-268 164 76 0
-268 165 75 0
-268 166 74 0
-268 167 73 0
-268 168 72 0
-268 169 71 0
-268 170 70 0
-268 171 69 0
-268 172 68 0
-268 173 67 0
-268 174 66 0
-268 175 65 0
-268 176 64 0
-268 177 63 0
-268 178 62 0
-268 179 61 0
-268 180 60 0
-268 181 59 0
-268 182 58 0
-268 183 57 0
-268 184 56 0
-268 185 55 0
-268 186 53 0
-267 157 81 0
-267 159 80 0
-267 160 79 0
-267 161 78 0
-267 162 77 0
-267 163 76 0
-267 164 75 0
-267 165 74 0
-267 166 73 0
-267 167 72 0
-267 168 71 0
-267 169 70 0
-267 170 69 0
-267 171 68 0
-267 172 67 0
-267 173 66 0
-267 174 65 0
-267 175 64 0
-267 176 63 0
-267 177 62 0
-267 178 61 0
-267 179 60 0
-267 180 59 0
-267 181 58 0
-267 182 57 0
-267 183 56 0
-267 184 55 0
-267 185 53 0
-266 157 80 0
-266 159 79 0
-266 160 78 0
-266 161 77 0
-266 162 76 0
-266 163 75 0
-266 164 74 0
-266 165 73 0
-266 166 72 0
-266 167 71 0
-266 168 70 0
-266 169 69 0
-266 170 68 0
-266 171 67 0
-266 172 66 0
-266 173 65 0
-266 174 64 0
-266 175 63 0
-266 176 62 0
-266 177 61 0
-266 178 60 0
-266 179 59 0
-266 180 58 0
-266 181 57 0
-266 182 56 0
-266 183 55 0
-266 184 53 0
-265 157 79 0
-265 159 78 0
-265 160 77 0
-265 161 76 0
-265 162 75 0
-265 163 74 0
-265 164 73 0
-265 165 72 0
-265 166 71 0
-265 167 70 0
-265 168 69 0
-265 169 68 0
-265 170 67 0
-265 171 66 0
-265 172 65 0
-265 173 64 0
-265 174 63 0
-265 175 62 0
-265 176 61 0
-265 177 60 0
-265 178 59 0
-265 179 58 0
-265 180 57 0
-265 181 56 0
-265 182 55 0
-265 183 53 0
-264 157 78 0
-264 159 77 0
-264 160 76 0
-264 161 75 0
-264 162 74 0
-264 163 73 0
-264 164 72 0
-264 165 71 0
-264 166 70 0
-264 167 69 0
-264 168 68 0
-264 169 67 0
-264 170 66 0
-264 171 65 0
-264 172 64 0
-264 173 63 0
-264 174 62 0
-264 175 61 0
-264 176 60 0
-264 177 59 0
-264 178 58 0
-264 179 57 0
-264 180 56 0
-264 181 55 0
-264 182 53 0
-263 157 77 0
-263 159 76 0
-263 160 75 0
-263 161 74 0
-263 162 73 0
-263 163 72 0
-263 164 71 0
-263 165 70 0
-263 166 69 0
-263 167 68 0
-263 168 67 0
-263 169 66 0
-263 170 65 0
-263 171 64 0
-263 172 63 0
-263 173 62 0
-263 174 61 0
-263 175 60 0
-263 176 59 0
-263 177 58 0
-263 178 57 0
-263 179 56 0
-263 180 55 0
-263 181 53 0
-262 157 76 0
-262 159 75 0
-262 160 74 0
-262 161 73 0
-262 162 72 0
-262 163 71 0
-262 164 70 0
-262 165 69 0
-262 166 68 0
-262 167 67 0
-262 168 66 0
-262 169 65 0
-262 170 64 0
-262 171 63 0
-262 172 62 0
-262 173 61 0
-262 174 60 0
-262 175 59 0
-262 176 58 0
-262 177 57 0
-262 178 56 0
-262 179 55 0
-262 180 53 0
-261 157 75 0
-261 159 74 0
-261 160 73 0
-261 161 72 0
-261 162 71 0
-261 163 70 0
-261 164 69 0
-261 165 68 0
-261 166 67 0
-261 167 66 0
-261 168 65 0
-261 169 64 0
-261 170 63 0
-261 171 62 0
-261 172 61 0
-261 173 60 0
-261 174 59 0
-261 175 58 0
-261 176 57 0
-261 177 56 0
-261 178 55 0
-261 179 53 0
-260 157 74 0
-260 159 73 0
-260 160 72 0
-260 161 71 0
-260 162 70 0
-260 163 69 0
-260 164 68 0
-260 165 67 0
-260 166 66 0
-260 167 65 0
-260 168 64 0
-260 169 63 0
-260 170 62 0
-260 171 61 0
-260 172 60 0
-260 173 59 0
-260 174 58 0
-260 175 57 0
-260 176 56 0
-260 177 55 0
-260 178 53 0
-259 157 73 0
-259 159 72 0
-259 160 71 0
-259 161 70 0
-259 162 69 0
-259 163 68 0
-259 164 67 0
-259 165 66 0
-259 166 65 0
-259 167 64 0
-259 168 63 0
-259 169 62 0
-259 170 61 0
-259 171 60 0
-259 172 59 0
-259 173 58 0
-259 174 57 0
-259 175 56 0
-259 176 55 0
-259 177 53 0
-258 157 72 0
-258 159 71 0
-258 160 70 0
-258 161 69 0
-258 162 68 0
-258 163 67 0
-258 164 66 0
-258 165 65 0
-258 166 64 0
-258 167 63 0
-258 168 62 0
-258 169 61 0
-258 170 60 0
-258 171 59 0
-258 172 58 0
-258 173 57 0
-258 174 56 0
-258 175 55 0
-258 176 53 0
-257 157 71 0
-257 159 70 0
-257 160 69 0
-257 161 68 0
-257 162 67 0
-257 163 66 0
-257 164 65 0
-257 165 64 0
-257 166 63 0
-257 167 62 0
-257 168 61 0
-257 169 60 0
-257 170 59 0
-257 171 58 0
-257 172 57 0
-257 173 56 0
-257 174 55 0
-257 175 53 0
-256 157 70 0
-256 159 69 0
-256 160 68 0
-256 161 67 0
-256 162 66 0
-256 163 65 0
-256 164 64 0
-256 165 63 0
-256 166 62 0
-256 167 61 0
-256 168 60 0
-256 169 59 0
-256 170 58 0
-256 171 57 0
-256 172 56 0
-256 173 55 0
-256 174 53 0
-255 157 69 0
-255 159 68 0
-255 160 67 0
-255 161 66 0
-255 162 65 0
-255 163 64 0
-255 164 63 0
-255 165 62 0
-255 166 61 0
-255 167 60 0
-255 168 59 0
-255 169 58 0
-255 170 57 0
-255 171 56 0
-255 172 55 0
-255 173 53 0
-254 157 68 0
-254 159 67 0
-254 160 66 0
-254 161 65 0
-254 162 64 0
-254 163 63 0
-254 164 62 0
-254 165 61 0
-254 166 60 0
-254 167 59 0
-254 168 58 0
-254 169 57 0
-254 170 56 0
-254 171 55 0
-254 172 53 0
-253 157 67 0
-253 159 66 0
-253 160 65 0
-253 161 64 0
-253 162 63 0
-253 163 62 0
-253 164 61 0
-253 165 60 0
-253 166 59 0
-253 167 58 0
-253 168 57 0
-253 169 56 0
-253 170 55 0
-253 171 53 0
-252 157 66 0
-252 159 65 0
-252 160 64 0
-252 161 63 0
-252 162 62 0
-252 163 61 0
-252 164 60 0
-252 165 59 0
-252 166 58 0
-252 167 57 0
-252 168 56 0
-252 169 55 0
-252 170 53 0
-251 157 65 0
-251 159 64 0
-251 160 63 0
-251 161 62 0
-251 162 61 0
-251 163 60 0
-251 164 59 0
-251 165 58 0
-251 166 57 0
-251 167 56 0
-251 168 55 0
-251 169 53 0
-250 157 64 0
-250 159 63 0
-250 160 62 0
-250 161 61 0
-250 162 60 0
-250 163 59 0
-250 164 58 0
-250 165 57 0
-250 166 56 0
-250 167 55 0
-250 168 53 0
-249 157 63 0
-249 159 62 0
-249 160 61 0
-249 161 60 0
-249 162 59 0
-249 163 58 0
-249 164 57 0
-249 165 56 0
-249 166 55 0
-249 167 53 0
-248 157 62 0
-248 159 61 0
-248 160 60 0
-248 161 59 0
-248 162 58 0
-248 163 57 0
-248 164 56 0
-248 165 55 0
-248 166 53 0
-247 157 61 0
-247 159 60 0
-247 160 59 0
-247 161 58 0
-247 162 57 0
-247 163 56 0
-247 164 55 0
-247 165 53 0
-246 157 60 0
-246 159 59 0
-246 160 58 0
-246 161 57 0
-246 162 56 0
-246 163 55 0
-246 164 53 0
-245 157 59 0
-245 159 58 0
-245 160 57 0
-245 161 56 0
-245 162 55 0
-245 163 53 0
-244 157 58 0
-244 159 57 0
-244 160 56 0
-244 161 55 0
-244 162 53 0
-243 157 57 0
-243 159 56 0
-243 160 55 0
-243 161 53 0
-242 157 56 0
-242 159 55 0
-242 160 53 0
-241 157 55 0
-241 159 53 0
-240 157 53 0
238 -157 -53 0
240 -159 -53 0
240 -157 -55 0
241 -160 -53 0
241 -159 -55 0
241 -157 -56 0
242 -161 -53 0
242 -160 -55 0
242 -159 -56 0
242 -157 -57 0
243 -162 -53 0
243 -161 -55 0
243 -160 -56 0
243 -159 -57 0
243 -157 -58 0
244 -163 -53 0
244 -162 -55 0
244 -161 -56 0
244 -160 -57 0
244 -159 -58 0
244 -157 -59 0
245 -164 -53 0
245 -163 -55 0
245 -162 -56 0
245 -161 -57 0
245 -160 -58 0
245 -159 -59 0
245 -157 -60 0
246 -165 -53 0
246 -164 -55 0
246 -163 -56 0
246 -162 -57 0
246 -161 -58 0
246 -160 -59 0
246 -159 -60 0
246 -157 -61 0
247 -166 -53 0
247 -165 -55 0
247 -164 -56 0
247 -163 -57 0
247 -162 -58 0
247 -161 -59 0
247 -160 -60 0
247 -159 -61 0
247 -157 -62 0
248 -167 -53 0
248 -166 -55 0
248 -165 -56 0
248 -164 -57 0
248 -163 -58 0
248 -162 -59 0
248 -161 -60 0
248 -160 -61 0
248 -159 -62 0
248 -157 -63 0
249 -168 -53 0
249 -167 -55 0
249 -166 -56 0
249 -165 -57 0
249 -164 -58 0
249 -163 -59 0
249 -162 -60 0
249 -161 -61 0
249 -160 -62 0
249 -159 -63 0
249 -157 -64 0
250 -169 -53 0
250 -168 -55 0
250 -167 -56 0
250 -166 -57 0
250 -165 -58 0
250 -164 -59 0
250 -163 -60 0
250 -162 -61 0
250 -161 -62 0
250 -160 -63 0
250 -159 -64 0
250 -157 -65 0
251 -170 -53 0
251 -169 -55 0
251 -168 -56 0
251 -167 -57 0
251 -166 -58 0
251 -165 -59 0
251 -164 -60 0
251 -163 -61 0
251 -162 -62 0
251 -161 -63 0
251 -160 -64 0
251 -159 -65 0
251 -157 -66 0
252 -171 -53 0
252 -170 -55 0
252 -169 -56 0
252 -168 -57 0
252 -167 -58 0
252 -166 -59 0
252 -165 -60 0
252 -164 -61 0
252 -163 -62 0
252 -162 -63 0
252 -161 -64 0
252 -160 -65 0
252 -159 -66 0
252 -157 -67 0
253 -172 -53 0
253 -171 -55 0
253 -170 -56 0
253 -169 -57 0
253 -168 -58 0
253 -167 -59 0
253 -166 -60 0
253 -165 -61 0
253 -164 -62 0
253 -163 -63 0
253 -162 -64 0
253 -161 -65 0
253 -160 -66 0
253 -159 -67 0
253 -157 -68 0
254 -173 -53 0
254 -172 -55 0
254 -171 -56 0
254 -170 -57 0
254 -169 -58 0
254 -168 -59 0
254 -167 -60 0
254 -166 -61 0
254 -165 -62 0
254 -164 -63 0
254 -163 -64 0
254 -162 -65 0
254 -161 -66 0
254 -160 -67 0
254 -159 -68 0
254 -157 -69 0
255 -174 -53 0
255 -173 -55 0
255 -172 -56 0
255 -171 -57 0
255 -170 -58 0
255 -169 -59 0
255 -168 -60 0
255 -167 -61 0
255 -166 -62 0
255 -165 -63 0
255 -164 -64 0
255 -163 -65 0
255 -162 -66 0
255 -161 -67 0
255 -160 -68 0
255 -159 -69 0
255 -157 -70 0
256 -175 -53 0
256 -174 -55 0
256 -173 -56 0
256 -172 -57 0
256 -171 -58 0
256 -170 -59 0
256 -169 -60 0
256 -168 -61 0
256 -167 -62 0
256 -166 -63 0
256 -165 -64 0
256 -164 -65 0
256 -163 -66 0
256 -162 -67 0
256 -161 -68 0
256 -160 -69 0
256 -159 -70 0
256 -157 -71 0
257 -176 -53 0
257 -175 -55 0
257 -174 -56 0
257 -173 -57 0
257 -172 -58 0
257 -171 -59 0
257 -170 -60 0
257 -169 -61 0
257 -168 -62 0
257 -167 -63 0
257 -166 -64 0
257 -165 -65 0
257 -164 -66 0
257 -163 -67 0
257 -162 -68 0
257 -161 -69 0
257 -160 -70 0
257 -159 -71 0
257 -157 -72 0
258 -177 -53 0
258 -176 -55 0
258 -175 -56 0
258 -174 -57 0
258 -173 -58 0
258 -172 -59 0
258 -171 -60 0
258 -170 -61 0
258 -169 -62 0
258 -168 -63 0
258 -167 -64 0
258 -166 -65 0
258 -165 -66 0
258 -164 -67 0
258 -163 -68 0
258 -162 -69 0
258 -161 -70 0
258 -160 -71 0
258 -159 -72 0
258 -157 -73 0
259 -178 -53 0
259 -177 -55 0
259 -176 -56 0
259 -175 -57 0
259 -174 -58 0
259 -173 -59 0
259 -172 -60 0
259 -171 -61 0
259 -170 -62 0
259 -169 -63 0
259 -168 -64 0
259 -167 -65 0
259 -166 -66 0
259 -165 -67 0
259 -164 -68 0
259 -163 -69 0
259 -162 -70 0
259 -161 -71 0
259 -160 -72 0
259 -159 -73 0
259 -157 -74 0
260 -179 -53 0
260 -178 -55 0
260 -177 -56 0
260 -176 -57 0
260 -175 -58 0
260 -174 -59 0
260 -173 -60 0
260 -172 -61 0
260 -171 -62 0
260 -170 -63 0
260 -169 -64 0
260 -168 -65 0
260 -167 -66 0
260 -166 -67 0
260 -165 -68 0
260 -164 -69 0
260 -163 -70 0
260 -162 -71 0
260 -161 -72 0
260 -160 -73 0
260 -159 -74 0
260 -157 -75 0
261 -180 -53 0
261 -179 -55 0
261 -178 -56 0
261 -177 -57 0
261 -176 -58 0
261 -175 -59 0
261 -174 -60 0
261 -173 -61 0
261 -172 -62 0
261 -171 -63 0
261 -170 -64 0
261 -169 -65 0
261 -168 -66 0
261 -167 -67 0
261 -166 -68 0
261 -165 -69 0
261 -164 -70 0
261 -163 -71 0
261 -162 -72 0
261 -161 -73 0
261 -160 -74 0
261 -159 -75 0
261 -157 -76 0
262 -181 -53 0
262 -180 -55 0
262 -179 -56 0
262 -178 -57 0
262 -177 -58 0
262 -176 -59 0
262 -175 -60 0
262 -174 -61 0
262 -173 -62 0
262 -172 -63 0
262 -171 -64 0
262 -170 -65 0
262 -169 -66 0
262 -168 -67 0
262 -167 -68 0
262 -166 -69 0
262 -165 -70 0
262 -164 -71 0
262 -163 -72 0
262 -162 -73 0
262 -161 -74 0
262 -160 -75 0
262 -159 -76 0
262 -157 -77 0
263 -182 -53 0
263 -181 -55 0
263 -180 -56 0
263 -179 -57 0
263 -178 -58 0
263 -177 -59 0
263 -176 -60 0
263 -175 -61 0
263 -174 -62 0
263 -173 -63 0
263 -172 -64 0
263 -171 -65 0
263 -170 -66 0
263 -169 -67 0
263 -168 -68 0
263 -167 -69 0
263 -166 -70 0
263 -165 -71 0
263 -164 -72 0
263 -163 -73 0
263 -162 -74 0
263 -161 -75 0
263 -160 -76 0
263 -159 -77 0
263 -157 -78 0
264 -183 -53 0
264 -182 -55 0
264 -181 -56 0
264 -180 -57 0
264 -179 -58 0
264 -178 -59 0
264 -177 -60 0
264 -176 -61 0
264 -175 -62 0
264 -174 -63 0
264 -173 -64 0
264 -172 -65 0
264 -171 -66 0
264 -170 -67 0
264 -169 -68 0
264 -168 -69 0
264 -167 -70 0
264 -166 -71 0
264 -165 -72 0
264 -164 -73 0
264 -163 -74 0
264 -162 -75 0
264 -161 -76 0
264 -160 -77 0
264 -159 -78 0
264 -157 -79 0
265 -184 -53 0
265 -183 -55 0
265 -182 -56 0
265 -181 -57 0
265 -180 -58 0
265 -179 -59 0
265 -178 -60 0
265 -177 -61 0
265 -176 -62 0
265 -175 -63 0
265 -174 -64 0
265 -173 -65 0
265 -172 -66 0
265 -171 -67 0
265 -170 -68 0
265 -169 -69 0
265 -168 -70 0
265 -167 -71 0
265 -166 -72 0
265 -165 -73 0
265 -164 -74 0
265 -163 -75 0
265 -162 -76 0
265 -161 -77 0
265 -160 -78 0
265 -159 -79 0
265 -157 -80 0
266 -185 -53 0
266 -184 -55 0
266 -183 -56 0
266 -182 -57 0
266 -181 -58 0
266 -180 -59 0
266 -179 -60 0
266 -178 -61 0
266 -177 -62 0
266 -176 -63 0
266 -175 -64 0
266 -174 -65 0
266 -173 -66 0
266 -172 -67 0
266 -171 -68 0
266 -170 -69 0
266 -169 -70 0
266 -168 -71 0
266 -167 -72 0
266 -166 -73 0
266 -165 -74 0
266 -164 -75 0
266 -163 -76 0
266 -162 -77 0
266 -161 -78 0
266 -160 -79 0
266 -159 -80 0
266 -157 -81 0
267 -186 -53 0
267 -185 -55 0
267 -184 -56 0
267 -183 -57 0
267 -182 -58 0
267 -181 -59 0
267 -180 -60 0
267 -179 -61 0
267 -178 -62 0
267 -177 -63 0
267 -176 -64 0
267 -175 -65 0
267 -174 -66 0
267 -173 -67 0
267 -172 -68 0
267 -171 -69 0
267 -170 -70 0
267 -169 -71 0
267 -168 -72 0
267 -167 -73 0
267 -166 -74 0
267 -165 -75 0
267 -164 -76 0
267 -163 -77 0
267 -162 -78 0
267 -161 -79 0
267 -160 -80 0
267 -159 -81 0
267 -157 -82 0
268 -187 -53 0
268 -186 -55 0
268 -185 -56 0
268 -184 -57 0
268 -183 -58 0
268 -182 -59 0
268 -181 -60 0
268 -180 -61 0
268 -179 -62 0
268 -178 -63 0
268 -177 -64 0
268 -176 -65 0
268 -175 -66 0
268 -174 -67 0
268 -173 -68 0
268 -172 -69 0
268 -171 -70 0
268 -170 -71 0
268 -169 -72 0
268 -168 -73 0
268 -167 -74 0
268 -166 -75 0
268 -165 -76 0
268 -164 -77 0
268 -163 -78 0
268 -162 -79 0
268 -161 -80 0
268 -160 -81 0
268 -159 -82 0
268 -157 -83 0
269 -188 -53 0
269 -187 -55 0
269 -186 -56 0
269 -185 -57 0
269 -184 -58 0
269 -183 -59 0
269 -182 -60 0
269 -181 -61 0
269 -180 -62 0
269 -179 -63 0
269 -178 -64 0
269 -177 -65 0
269 -176 -66 0
269 -175 -67 0
269 -174 -68 0
269 -173 -69 0
269 -172 -70 0
269 -171 -71 0
269 -170 -72 0
269 -169 -73 0
269 -168 -74 0
269 -167 -75 0
269 -166 -76 0
269 -165 -77 0
269 -164 -78 0
269 -163 -79 0
269 -162 -80 0
269 -161 -81 0
269 -160 -82 0
269 -159 -83 0
269 -157 -84 0
270 -189 -53 0
270 -188 -55 0
270 -187 -56 0
270 -186 -57 0
270 -185 -58 0
270 -184 -59 0
270 -183 -60 0
270 -182 -61 0
270 -181 -62 0
270 -180 -63 0
270 -179 -64 0
270 -178 -65 0
270 -177 -66 0
270 -176 -67 0
270 -175 -68 0
270 -174 -69 0
270 -173 -70 0
270 -172 -71 0
270 -171 -72 0
270 -170 -73 0
270 -169 -74 0
270 -168 -75 0
270 -167 -76 0
270 -166 -77 0
270 -165 -78 0
270 -164 -79 0
270 -163 -80 0
270 -162 -81 0
270 -161 -82 0
270 -160 -83 0
270 -159 -84 0
270 -157 -85 0
271 -190 -53 0
271 -189 -55 0
271 -188 -56 0
271 -187 -57 0
271 -186 -58 0
271 -185 -59 0
271 -184 -60 0
271 -183 -61 0
271 -182 -62 0
271 -181 -63 0
271 -180 -64 0
271 -179 -65 0
271 -178 -66 0
271 -177 -67 0
271 -176 -68 0
271 -175 -69 0
271 -174 -70 0
271 -173 -71 0
271 -172 -72 0
271 -171 -73 0
271 -170 -74 0
271 -169 -75 0
271 -168 -76 0
271 -167 -77 0
271 -166 -78 0
271 -165 -79 0
271 -164 -80 0
271 -163 -81 0
271 -162 -82 0
271 -161 -83 0
271 -160 -84 0
271 -159 -85 0
271 -157 -86 0
239 -191 -53 0
239 -190 -55 0
239 -189 -56 0
239 -188 -57 0
239 -187 -58 0
239 -186 -59 0
239 -185 -60 0
239 -184 -61 0
239 -183 -62 0
239 -182 -63 0
239 -181 -64 0
239 -180 -65 0
239 -179 -66 0
239 -178 -67 0
239 -177 -68 0
239 -176 -69 0
239 -175 -70 0
239 -174 -71 0
239 -173 -72 0
239 -172 -73 0
239 -171 -74 0
239 -170 -75 0
239 -169 -76 0
239 -168 -77 0
239 -167 -78 0
239 -166 -79 0
239 -165 -80 0
239 -164 -81 0
239 -163 -82 0
239 -162 -83 0
239 -161 -84 0
239 -160 -85 0
239 -159 -86 0
239 -157 -87 0
